Traveling Salesman Problem/TSP_generados/Aleatorio1620391042_13.tsp
NAME: Aleatorio1620391042_13.tsp
COMMENT: Randomly generated scenario
TYPE: TSP
DIMENSION: 13
EDGE_WEIGHT_TYPE: ATT
NODE_COORD_SECTION
1 22.57 5.74
2 11.28 27.74
3 44.95 10.91
4 43.37 45.01
5 47.24 33.55
6 21.12 10.35
7 27.59 17.56
8 39.57 24.72
9 28.83 25.6
10 32.74 27.8
11 11.1 32.85
12 12.57 39.19
13 7.74 3.22
