Traveling Salesman Problem/TSP_generados/Aleatorio1620391042_13.opt.tour
NAME: Aleatorio1620391042_13.opt.tour
COMMENT: Optimal solution for Aleatorio1620391042_13 (167.0893539948147)
TYPE: TOUR
DIMENSION: 13
TOUR_SECTION
1 6 7 9 10 8 3 5 4 12 11 2 13
-1
EOF
